17,9	0,0	11,1	13,8	0,0	0,0	0,0	0,0	0,0	11,3
14,4	8,0	0,0	11,1	7,2	0,0	0,0	19,7	0,0	0,0
0,0	0,0	7,0	0,0	12,2	7,6	0,0	0,0	14,7	0,0
17,1	0,0	6,2	0,0	0,0	0,0	10,6	0,0	0,0	0,0
0,0	10,7	0,0	12,0	6,6	0,0	0,0	6,1	0,0	0,0
0,0	16,7	14,0	0,0	9,2	12,0	0,0	0,0	15,2	0,0
0,0	18,5	0,0	12,8	0,0	0,0	8,8	0,0	0,0	7,2
5,9	0,0	8,2	0,0	0,0	0,0	0,0	0,0	0,0	18,4
0,0	12,8	0,0	18,6	17,0	0,0	0,0	7,7	0,0	0,0
0,0	0,0	10,9	0,0	0,0	5,1	19,9	0,0	0,0	19,6
									
3,2	3,5	3,5	3,8	4,3	3,2	3,2	3,4	3,5	4,3
